n = 25;
edge = [| 4, 1 
| 8, 1 
| 12, 1 
| 22, 1 
| 1, 2 
| 7, 2 
| 8, 2 
| 1, 3 
| 16, 3 
| 6, 4 
| 13, 4 
| 14, 4 
| 17, 4 
| 23, 4 
| 15, 5 
| 20, 5 
| 21, 5 
| 2, 6 
| 5, 6 
| 12, 6 
| 15, 6 
| 19, 6 
| 22, 6 
| 1, 7 
| 16, 7 
| 18, 7 
| 19, 7 
| 21, 7 
| 23, 7 
| 4, 8 
| 9, 8 
| 10, 8 
| 11, 8 
| 13, 8 
| 19, 8 
| 20, 8 
| 24, 8 
| 25, 8 
| 6, 9 
| 17, 9 
| 21, 9 
| 22, 9 
| 4, 10 
| 6, 10 
| 13, 10 
| 1, 11 
| 13, 11 
| 22, 11 
| 7, 12 
| 8, 12 
| 11, 12 
| 17, 12 
| 20, 12 
| 23, 12 
| 21, 13 
| 6, 14 
| 7, 14 
| 24, 14 
| 1, 15 
| 2, 15 
| 3, 15 
| 4, 15 
| 6, 15 
| 7, 15 
| 16, 15 
| 17, 15 
| 3, 16 
| 12, 16 
| 18, 16 
| 21, 16 
| 2, 17 
| 6, 17 
| 8, 17 
| 21, 17 
| 24, 17 
| 9, 18 
| 15, 18 
| 16, 18 
| 22, 18 
| 23, 18 
| 25, 18 
| 3, 19 
| 9, 19 
| 11, 19 
| 22, 19 
| 24, 19 
| 8, 20 
| 9, 20 
| 10, 20 
| 18, 20 
| 19, 20 
| 24, 20 
| 4, 21 
| 12, 21 
| 23, 21 
| 1, 22 
| 14, 22 
| 17, 22 
| 24, 22 
| 3, 23 
| 4, 23 
| 6, 23 
| 10, 23 
| 12, 23 
| 17, 23 
| 3, 24 
| 4, 24 
| 5, 24 
| 6, 24 
| 8, 24 
| 16, 24 
| 18, 24 
| 4, 25 
| 5, 25 
| 7, 25 
| 8, 25 
| 11, 25 
| 21, 25 
|];
